c description: Random 3-CNF over 18 variables and 77 clauses
c generator: CNFgen (0.9.2)
c copyright: (C) 2012-2022 Massimo Lauria <massimo.lauria@uniroma1.it>
c url: https://massimolauria.net/cnfgen
c command line: cnfgen --output CNF_4.28/18_bit_77_70.cnf randkcnf 3 18 77
c
p cnf 18 77
-2 7 -15 0
-1 7 -13 0
-1 2 -3 0
4 -5 -6 0
-6 10 -14 0
-4 7 8 0
15 16 18 0
-1 -2 -5 0
-3 -13 -14 0
4 -5 6 0
-2 -9 -18 0
-13 -15 18 0
-5 -6 12 0
1 2 11 0
-14 15 -16 0
9 -12 13 0
8 10 17 0
-2 10 -13 0
7 -12 -16 0
-4 15 17 0
8 11 -12 0
-3 13 -15 0
-4 -5 -9 0
-8 13 18 0
3 -10 -16 0
5 9 16 0
4 5 11 0
6 -11 16 0
-2 9 17 0
-5 7 13 0
5 12 -16 0
-2 5 9 0
2 -12 18 0
2 -3 -11 0
-2 -11 15 0
4 -7 -16 0
-1 -15 18 0
-4 12 -13 0
-3 -7 -10 0
1 -3 -7 0
-2 10 -18 0
-6 -10 17 0
3 5 9 0
1 -9 -15 0
6 -7 -18 0
10 13 14 0
8 10 16 0
-1 8 -10 0
1 -6 -7 0
-12 16 18 0
-1 3 11 0
-9 11 15 0
-1 3 17 0
-4 -12 -13 0
4 -15 -16 0
-9 13 18 0
8 -12 13 0
-6 9 12 0
11 12 13 0
6 -9 12 0
3 4 9 0
-4 7 -12 0
-6 15 17 0
-3 -5 -8 0
-7 -17 18 0
-9 10 -14 0
3 6 12 0
10 16 -18 0
7 -11 -14 0
-4 -12 -15 0
1 -14 16 0
-3 14 -15 0
6 -10 14 0
-1 -2 4 0
-3 6 10 0
1 3 -17 0
-4 14 15 0
